(declare-fun bvlambda_5_ ()Bool         )
(declare-fun bvlambda_6_ () (_ BitVec 2))
(declare-fun bvlambda_15_ ()Bool         )
(declare-fun bvlambda_17_ ()Bool         )
(declare-fun bvlambda_22_ ()Bool         )
(declare-fun bvlambda_23_ ()Bool         )
(declare-fun bvlambda_24_ ()Bool         )
(declare-fun a74 () (Array (_ BitVec 1) (_ BitVec 4)))
(assert
(let (($e1 false    ))
(let (($e6 (_ bv1920 16)))
(let (($e17 (_ bv0 11)))
(let (($e75 (concat $e17 bvlambda_15_)))
(let (($e76 (concat $e75 bvlambda_22_)))
(let (($e77 (concat $e76 bvlambda_23_)))
(let (($e78 (concat $e77 bvlambda_24_)))
(let (($e79 (concat $e78 bvlambda_17_)))
(let (($e85                                $e79 ))
(let (($e86 (bvand (bvnot $e6) $e85)))
(let (($e87 (bvand $e6 (bvnot $e85))))
(let (($e88 (bvand (bvnot $e87) (bvnot $e86))))
(let (($e696 (   extract      $e88)))
(let (($e697 (concat $e1 bvlambda_5_)))
(let (($e698 (concat $e697 bvlambda_6_)))
(let (($e699 (store a74 $e1 $e698)))
(
              (_ extract 3 3)(select $e699(bvnot $e696))
                                                                                                                                                                                                                                                                                                                                                                                                                                                                                                                                                                                                                                                                                                                                                                                                                                                                                                                                                              )))))                                                                                                                                                                                                                                                                                                                                                                                                                                                                                                                                                                                                                               ))))     )))))                                 )          )    ))
